\ Model _copy
\ LP format - for model browsing. Use MPS format to capture full model detail.
Minimize
 
Subject To
 R1538: x[2] >= -0.5
 R1540: x[4] >= -0.5
 R1541: x[0] <= 0.6798577687
 R1542: x[1] <= 0.5
 R1544: x[3] <= 0.5
 y288_inactive_UB: - 87.77274548788856 x[0] - 184.5657009561077 x[1]
   + 160.3093280393905 x[2] - 18.01856996583439 x[3]
   + 24.64290484834654 x[4] <= -788.7324021619092
Bounds
 x[0] free
 x[1] free
 x[2] free
 x[3] free
 x[4] free
End
